92 94 71 9 20 1 12 
83 37 95 18 7 10 60 58 
33 65 90 66 32 70 31 
26 21 72 75 73 6 52 5 85 91 
39 23 40 54 55 4 
2 28 69 88 48 82 13 59 93 
36 62 53 56 3 
34 29 22 97 77 50 
45 47 19 49 46 17 100 98 
42 14 44 61 16 86 74 96 
63 11 30 51 68 24 25 
27 38 57 43 89 
76 78 79 35 80 
15 99 8 
64 84 
87 41 
67 
81 

